data/solutions/recovery/wellformed/moderate/binding/wellformed_moderate_instance64/9.sol
Elapsed time: 0.02
Upper bound: 4889.0
Planning weighted value: 129207.0
C[0]=4889.0
C[1]=4870.0
C[2]=4844.0
C[3]=4841.0
C[4]=0.0
y[0]=2
y[1]=2
y[2]=1
y[3]=3
y[4]=2
y[5]=2
y[6]=0
y[7]=3
y[8]=2
y[9]=0
y[10]=3
y[11]=3
y[12]=0
y[13]=2
y[14]=2
y[15]=3
y[16]=1
y[17]=2
y[18]=2
y[19]=0
y[20]=3
y[21]=2
y[22]=1
y[23]=1
y[24]=1
y[25]=1
y[26]=1
y[27]=2
y[28]=0
y[29]=1
y[30]=1
y[31]=3
y[32]=0
y[33]=2
y[34]=3
y[35]=0
y[36]=0
y[37]=3
y[38]=1
y[39]=0
y[40]=3
