data/solutions/recovery/wellformed/moderate/binding/wellformed_moderate_instance64/9.log

Log started (V12.6.3.0) Fri Apr 20 17:49:34 2018

New value for default parallel thread count: 1

Problem '/tmp/tmpEtQKAA.pyomo.lp' read.
Read time = 0.01 sec. (0.09 ticks)

Problem name         : /tmp/tmpEtQKAA.pyomo.lp
Objective sense      : Minimize
Variables            :     212  [Nneg: 1,  Binary: 205,  General Integer: 6]
Objective nonzeros   :       1
Linear constraints   :      94  [Less: 46,  Equal: 48]
  Nonzeros           :    6023
  RHS nonzeros       :      42

Variables            : Min LB: 0.000000         Max UB: 1.000000       
Objective nonzeros   : Min   : 1.000000         Max   : 1.000000       
Linear constraints   :
  Nonzeros           : Min   : 1.000000         Max   : 1963.000       
  RHS nonzeros       : Min   : 1.000000         Max   : 1.000000       
Tried aggregator 2 times.
MIP Presolve eliminated 79 rows and 179 columns.
Aggregator did 4 substitutions.
Reduced MIP has 11 rows, 29 columns, and 60 nonzeros.
Reduced MIP has 28 binaries, 1 generals, 0 SOSs, and 0 indicators.
Presolve time = 0.00 sec. (0.49 ticks)
Found incumbent of value 10209.000000 after 0.00 sec. (0.65 ticks)
Probing time = 0.00 sec. (0.01 ticks)
Cover probing fixed 0 vars, tightened 1 bounds.
Tried aggregator 1 time.
Reduced MIP has 11 rows, 29 columns, and 60 nonzeros.
Reduced MIP has 28 binaries, 1 generals, 0 SOSs, and 0 indicators.
Presolve time = 0.00 sec. (0.04 ticks)
Probing time = 0.00 sec. (0.01 ticks)
Clique table members: 7.
MIP emphasis: balance optimality and feasibility.
MIP search method: dynamic search.
Parallel mode: none, using 1 thread.
Root relaxation solution time = 0.00 sec. (0.03 ticks)

        Nodes                                         Cuts/
   Node  Left     Objective  IInf  Best Integer    Best Bound    ItCnt     Gap

*     0+    0                        10209.0000     4841.0000            52.58%
      0     0     4861.0000     6    10209.0000     4861.0000        7   52.39%
*     0+    0                         5480.0000     4861.0000            11.30%
      0     0     4861.0000     9     5480.0000       Cuts: 6       17   11.30%
*     0+    0                         5323.0000     4861.0000             8.68%
      0     0     4861.0000    11     5323.0000      Cuts: 10       29    8.68%
*     0+    0                         5248.0000     4861.0000             7.37%
*     0+    0                         5232.0000     4861.0000             7.09%
*     0+    0                         5175.0000     4861.0000             6.07%
      0     2     4861.0000     5     5175.0000     4861.0000       29    6.07%
Elapsed time = 0.01 sec. (1.61 ticks, tree = 0.01 MB, solutions = 6)
*    10+    8                         4986.0000     4861.0000             2.51%
*    19    11      integral     0     4919.0000     4861.0000       69    1.18%
*    21    11      integral     0     4889.0000     4861.0000       72    0.57%

Clique cuts applied:  2
Mixed integer rounding cuts applied:  1
Gomory fractional cuts applied:  1

Root node processing (before b&c):
  Real time             =    0.01 sec. (1.62 ticks)
Sequential b&c:
  Real time             =    0.00 sec. (0.34 ticks)
                          ------------
Total (root+branch&cut) =    0.01 sec. (1.96 ticks)

Solution pool: 9 solutions saved.

MIP - Integer optimal solution:  Objective =  4.8890000000e+03
Solution time =    0.01 sec.  Iterations = 78  Nodes = 33
Deterministic time = 1.96 ticks  (236.27 ticks/sec)


Incumbent solution written to file '/tmp/tmpKeFg08.cplex.sol'.

Log started (V12.6.3.0) Fri Apr 20 17:52:38 2018

New value for default parallel thread count: 1

Problem '/tmp/tmpRvL0GK.pyomo.lp' read.
Read time = 0.00 sec. (0.09 ticks)

Problem name         : /tmp/tmpRvL0GK.pyomo.lp
Objective sense      : Minimize
Variables            :     212  [Nneg: 1,  Binary: 205,  General Integer: 6]
Objective nonzeros   :       1
Linear constraints   :      94  [Less: 46,  Equal: 48]
  Nonzeros           :    6023
  RHS nonzeros       :      42

Variables            : Min LB: 0.000000         Max UB: 1.000000       
Objective nonzeros   : Min   : 1.000000         Max   : 1.000000       
Linear constraints   :
  Nonzeros           : Min   : 1.000000         Max   : 1963.000       
  RHS nonzeros       : Min   : 1.000000         Max   : 1.000000       
Tried aggregator 2 times.
MIP Presolve eliminated 79 rows and 179 columns.
Aggregator did 4 substitutions.
Reduced MIP has 11 rows, 29 columns, and 60 nonzeros.
Reduced MIP has 28 binaries, 1 generals, 0 SOSs, and 0 indicators.
Presolve time = 0.00 sec. (0.49 ticks)
Found incumbent of value 10209.000000 after 0.00 sec. (0.65 ticks)
Probing time = 0.00 sec. (0.01 ticks)
Cover probing fixed 0 vars, tightened 1 bounds.
Tried aggregator 1 time.
Reduced MIP has 11 rows, 29 columns, and 60 nonzeros.
Reduced MIP has 28 binaries, 1 generals, 0 SOSs, and 0 indicators.
Presolve time = 0.00 sec. (0.04 ticks)
Probing time = 0.00 sec. (0.01 ticks)
Clique table members: 7.
MIP emphasis: balance optimality and feasibility.
MIP search method: dynamic search.
Parallel mode: none, using 1 thread.
Root relaxation solution time = 0.00 sec. (0.03 ticks)

        Nodes                                         Cuts/
   Node  Left     Objective  IInf  Best Integer    Best Bound    ItCnt     Gap

*     0+    0                        10209.0000     4841.0000            52.58%
      0     0     4861.0000     6    10209.0000     4861.0000        7   52.39%
*     0+    0                         5480.0000     4861.0000            11.30%
      0     0     4861.0000     9     5480.0000       Cuts: 6       17   11.30%
*     0+    0                         5323.0000     4861.0000             8.68%
      0     0     4861.0000    11     5323.0000      Cuts: 10       29    8.68%
*     0+    0                         5248.0000     4861.0000             7.37%
*     0+    0                         5232.0000     4861.0000             7.09%
*     0+    0                         5175.0000     4861.0000             6.07%
      0     2     4861.0000     5     5175.0000     4861.0000       29    6.07%
Elapsed time = 0.01 sec. (1.61 ticks, tree = 0.01 MB, solutions = 6)
*    10+    8                         4986.0000     4861.0000             2.51%
*    19    11      integral     0     4919.0000     4861.0000       69    1.18%
*    21    11      integral     0     4889.0000     4861.0000       72    0.57%

Clique cuts applied:  2
Mixed integer rounding cuts applied:  1
Gomory fractional cuts applied:  1

Root node processing (before b&c):
  Real time             =    0.01 sec. (1.62 ticks)
Sequential b&c:
  Real time             =    0.00 sec. (0.34 ticks)
                          ------------
Total (root+branch&cut) =    0.01 sec. (1.96 ticks)

Solution pool: 9 solutions saved.

MIP - Integer optimal solution:  Objective =  4.8890000000e+03
Solution time =    0.01 sec.  Iterations = 78  Nodes = 33
Deterministic time = 1.96 ticks  (278.59 ticks/sec)


Incumbent solution written to file '/tmp/tmpxUWLnU.cplex.sol'.
